(set-logic QF_FP)
(set-info :source |Random FP created by PyMPF|)
(set-info :category random)
(set-info :status unsat)
(declare-const x Float32)
(assert (= x (fp #b1 #b11111110 #b11111111111111111111111)))
(declare-const y Float32)
(assert (= y ((_ to_fp 8 24) #x003E5A63)))
(declare-const z Float32)
(assert (= z (fp #b1 #b01000011 #b01100000110000111000101)))
(declare-const result Float32)
(assert (= result (fp.fma RNA x y z)))
(assert (not (= result (fp #b1 #b01111111 #b11110010110100110001011))))
(check-sat)
(exit)
